12
0 5 1 0 0 0 3 0 9 0 0 4
6 0 4 5 0 6 0 8 0 4 0 0
6 0 0 2 9 0 0 0 7 0 0 8
0 5 0 0 0 2 0 0 0 4 0 0
3 0 9 4 0 8 0 0 1 2 0 3
0 0 0 2 0 0 6 0 0 0 7 0
3 0 8 0 0 6 0 7 0 0 2 5
0 8 0 7 5 0 4 0 9 0 0 6
0 0 7 0 1 0 0 9 0 2 0 3
1 0 0 4 0 3 0 5 0 0 5 8
0 0 8 0 0 7 2 0 0 5 0 2
4 9 0 0 3 0 5 6 0 8 1 0
38
0 1 2 3 5 6 10 11 7 4 8 9 0
